111111111111111
100000000000101
101111111110101
101000000010101
101011111110101
101000100010001
101010101011101
101010001000101
101111111010101
100010100010101
111010101110101
100010101000101
101110101111101
100000100000001
111111111111111
